Fe-Li-O-P 
1.0
  -4.10489980000000 -2.05244990000000 2.05244990000000
   4.10489980000000 -4.10489980000000 0.00000020000000
   2.05244990000000  2.05244990000000 4.10489990000000
Li 1Mn O
 6  2 7
direct
  0.00000000000000 0.00000000000000 0.00000000000000  T  T  T 
  0.50000000000000 0.12500000000000 0.75000000000000  T  T  T
  0.00000000000000 0.25000000000000 0.50000000000000  T  T  T
  0.50000000000000 0.37500000000000 0.25000000000000  T  T  T
  0.00000000000000 0.50000000000000 0.00000000000000  T  T  T
  0.50000000000000 0.62500000000000 0.75000000000000  T  T  T
  0.00000000000000 0.75000000000000 0.50000000000000  T  T  F
  0.50000000000000 0.87500000000000 0.25000000000000  T  T  T
  0.err99999000000 0.06250000000000 0.37499999000000  T  T  F
  0.74999999000000 0.18750000000000 0.12499999000000  T  T  T
  0.74999999000000 0.43750000000000 0.62499999000000  T  T  T
  0.24999999000000 0.56250000000000 0.37499999000000  T  T  T
  0.74999999000000 0.68750000000000 0.12499999000000  T  T  T
  0.24999999000000 0.81250000000000 0.87499999000000  T  T  T
  0.74999999000000 0.93750000000000 0.62499999000000  T  T  T
  # the POSCAR ends here
  # some additional remarks that should be ignored
